src/ocaml/benchmarks/crypto/openssl/ecp_nistz256/ecp_nistz256_add/ecp_nistz256_add_1.smt2
(set-logic QF_BV)
(set-info :smt-lib-version 2.0)
(declare-fun r9_4 () (_ BitVec 64))
(declare-fun r9_3 () (_ BitVec 64))
(declare-fun r9_2 () (_ BitVec 64))
(declare-fun r8_4 () (_ BitVec 64))
(declare-fun r8_3 () (_ BitVec 64))
(declare-fun r8_2 () (_ BitVec 64))
(declare-fun r13_3 () (_ BitVec 64))
(declare-fun r13_2 () (_ BitVec 64))
(declare-fun r11_4 () (_ BitVec 64))
(declare-fun r11_3 () (_ BitVec 64))
(declare-fun r11_2 () (_ BitVec 64))
(declare-fun r10_4 () (_ BitVec 64))
(declare-fun r10_3 () (_ BitVec 64))
(declare-fun r10_2 () (_ BitVec 64))
(declare-fun carry_p_1 () (_ BitVec 64))
(declare-fun carry_9 () (_ BitVec 1))
(declare-fun carry_8 () (_ BitVec 1))
(declare-fun carry_7 () (_ BitVec 1))
(declare-fun carry_6 () (_ BitVec 1))
(declare-fun carry_5 () (_ BitVec 1))
(declare-fun carry_4 () (_ BitVec 1))
(declare-fun carry_3 () (_ BitVec 1))
(declare-fun carry_2 () (_ BitVec 1))
(declare-fun carry_1 () (_ BitVec 1))
(declare-fun b3_0 () (_ BitVec 64))
(declare-fun b2_0 () (_ BitVec 64))
(declare-fun b1_0 () (_ BitVec 64))
(declare-fun b0_0 () (_ BitVec 64))
(declare-fun a3_0 () (_ BitVec 64))
(declare-fun a2_0 () (_ BitVec 64))
(declare-fun a1_0 () (_ BitVec 64))
(declare-fun a0_0 () (_ BitVec 64))
(assert (and (bvult (bvadd (bvmul ((_ zero_extend 192) a0_0) #x0000000000000000000000000000000000000000000000000000000000000001) (bvadd (bvmul ((_ zero_extend 192) a1_0) #x0000000000000000000000000000000000000000000000010000000000000000) (bvadd (bvmul ((_ zero_extend 192) a2_0) #x0000000000000000000000000000000100000000000000000000000000000000) (bvmul ((_ zero_extend 192) a3_0) #x0000000000000001000000000000000000000000000000000000000000000000)))) (bvadd (bvmul ((_ zero_extend 192) #xFFFFFFFFFFFFFFFF) #x0000000000000000000000000000000000000000000000000000000000000001) (bvadd (bvmul ((_ zero_extend 192) #x00000000FFFFFFFF) #x0000000000000000000000000000000000000000000000010000000000000000) (bvadd (bvmul ((_ zero_extend 192) #x0000000000000000) #x0000000000000000000000000000000100000000000000000000000000000000) (bvmul ((_ zero_extend 192) #xFFFFFFFF00000001) #x0000000000000001000000000000000000000000000000000000000000000000))))) (bvult (bvadd (bvmul ((_ zero_extend 192) b0_0) #x0000000000000000000000000000000000000000000000000000000000000001) (bvadd (bvmul ((_ zero_extend 192) b1_0) #x0000000000000000000000000000000000000000000000010000000000000000) (bvadd (bvmul ((_ zero_extend 192) b2_0) #x0000000000000000000000000000000100000000000000000000000000000000) (bvmul ((_ zero_extend 192) b3_0) #x0000000000000001000000000000000000000000000000000000000000000000)))) (bvadd (bvmul ((_ zero_extend 192) #xFFFFFFFFFFFFFFFF) #x0000000000000000000000000000000000000000000000000000000000000001) (bvadd (bvmul ((_ zero_extend 192) #x00000000FFFFFFFF) #x0000000000000000000000000000000000000000000000010000000000000000) (bvadd (bvmul ((_ zero_extend 192) #x0000000000000000) #x0000000000000000000000000000000100000000000000000000000000000000) (bvmul ((_ zero_extend 192) #xFFFFFFFF00000001) #x0000000000000001000000000000000000000000000000000000000000000000)))))))
(assert (and (= carry_1 ((_ extract 64 64) (bvadd ((_ zero_extend 1) b0_0) ((_ zero_extend 1) a0_0)))) (= r8_2 ((_ extract 63 0) (bvadd ((_ zero_extend 1) b0_0) ((_ zero_extend 1) a0_0))))))
(assert (and (= carry_2 ((_ extract 64 64) (bvadd (bvadd ((_ zero_extend 1) b1_0) ((_ zero_extend 1) a1_0)) ((_ zero_extend 64) carry_1)))) (= r9_2 ((_ extract 63 0) (bvadd (bvadd ((_ zero_extend 1) b1_0) ((_ zero_extend 1) a1_0)) ((_ zero_extend 64) carry_1))))))
(assert (and (= carry_3 ((_ extract 64 64) (bvadd (bvadd ((_ zero_extend 1) b2_0) ((_ zero_extend 1) a2_0)) ((_ zero_extend 64) carry_2)))) (= r10_2 ((_ extract 63 0) (bvadd (bvadd ((_ zero_extend 1) b2_0) ((_ zero_extend 1) a2_0)) ((_ zero_extend 64) carry_2))))))
(assert (and (= carry_4 ((_ extract 64 64) (bvadd (bvadd ((_ zero_extend 1) b3_0) ((_ zero_extend 1) a3_0)) ((_ zero_extend 64) carry_3)))) (= r11_2 ((_ extract 63 0) (bvadd (bvadd ((_ zero_extend 1) b3_0) ((_ zero_extend 1) a3_0)) ((_ zero_extend 64) carry_3))))))
(assert (= r13_2 (bvadd (bvadd #x0000000000000000 #x0000000000000000) ((_ zero_extend 63) carry_4))))
(assert (and (= carry_5 ((_ extract 64 64) (bvsub ((_ zero_extend 1) r8_2) ((_ zero_extend 1) #xFFFFFFFFFFFFFFFF)))) (= r8_3 ((_ extract 63 0) (bvsub ((_ zero_extend 1) r8_2) ((_ zero_extend 1) #xFFFFFFFFFFFFFFFF))))))
(assert (and (= carry_6 ((_ extract 64 64) (bvsub ((_ zero_extend 1) r9_2) (bvadd ((_ zero_extend 1) #x00000000FFFFFFFF) ((_ zero_extend 64) carry_5))))) (= r9_3 ((_ extract 63 0) (bvsub ((_ zero_extend 1) r9_2) (bvadd ((_ zero_extend 1) #x00000000FFFFFFFF) ((_ zero_extend 64) carry_5)))))))
(assert (and (= carry_7 ((_ extract 64 64) (bvsub ((_ zero_extend 1) r10_2) (bvadd ((_ zero_extend 1) #x0000000000000000) ((_ zero_extend 64) carry_6))))) (= r10_3 ((_ extract 63 0) (bvsub ((_ zero_extend 1) r10_2) (bvadd ((_ zero_extend 1) #x0000000000000000) ((_ zero_extend 64) carry_6)))))))
(assert (and (= carry_8 ((_ extract 64 64) (bvsub ((_ zero_extend 1) r11_2) (bvadd ((_ zero_extend 1) #xFFFFFFFF00000001) ((_ zero_extend 64) carry_7))))) (= r11_3 ((_ extract 63 0) (bvsub ((_ zero_extend 1) r11_2) (bvadd ((_ zero_extend 1) #xFFFFFFFF00000001) ((_ zero_extend 64) carry_7)))))))
(assert (and (= carry_9 ((_ extract 64 64) (bvsub ((_ zero_extend 1) r13_2) (bvadd ((_ zero_extend 1) #x0000000000000000) ((_ zero_extend 64) carry_8))))) (= r13_3 ((_ extract 63 0) (bvsub ((_ zero_extend 1) r13_2) (bvadd ((_ zero_extend 1) #x0000000000000000) ((_ zero_extend 64) carry_8)))))))
(assert (= carry_p_1 ((_ zero_extend 63) carry_9)))
(assert true)
(assert true)
(assert (= r8_4 (ite (= carry_9 #b1) r8_2 r8_3)))
(assert (= r9_4 (ite (= carry_9 #b1) r9_2 r9_3)))
(assert (= r10_4 (ite (= carry_9 #b1) r10_2 r10_3)))
(assert (= r11_4 (ite (= carry_9 #b1) r11_2 r11_3)))
(assert (not (bvult (bvadd (bvmul ((_ zero_extend 192) r8_4) #x0000000000000000000000000000000000000000000000000000000000000001) (bvadd (bvmul ((_ zero_extend 192) r9_4) #x0000000000000000000000000000000000000000000000010000000000000000) (bvadd (bvmul ((_ zero_extend 192) r10_4) #x0000000000000000000000000000000100000000000000000000000000000000) (bvmul ((_ zero_extend 192) r11_4) #x0000000000000001000000000000000000000000000000000000000000000000)))) (bvadd (bvmul ((_ zero_extend 192) #xFFFFFFFFFFFFFFFF) #x0000000000000000000000000000000000000000000000000000000000000001) (bvadd (bvmul ((_ zero_extend 192) #x00000000FFFFFFFF) #x0000000000000000000000000000000000000000000000010000000000000000) (bvadd (bvmul ((_ zero_extend 192) #x0000000000000000) #x0000000000000000000000000000000100000000000000000000000000000000) (bvmul ((_ zero_extend 192) #xFFFFFFFF00000001) #x0000000000000001000000000000000000000000000000000000000000000000)))))))
(check-sat)
(exit)
